Clp0006I 0  Obj 0 Primal inf 1999.9998 (2000) Dual inf 27494300 (1000000)
Clp0006I 200  Obj -22062316 Primal inf 1608614 (2000)
Clp0006I 400  Obj -16576437 Primal inf 1214463 (2000)
Clp0006I 600  Obj -11096380 Primal inf 821115 (2000)
Clp0006I 800  Obj -5608663 Primal inf 432002 (2000)
Clp0006I 1000  Obj -126706 Primal inf 67402 (1996)
Clp0006I 1178  Obj -58312 Primal inf 65584 (1996)
Clp0006I 1277  Obj -58312 Primal inf 68105 (1994)
Clp0006I 1411  Obj -57752 Primal inf 77404 (1995)
Clp0006I 1527  Obj -57752 Primal inf 223458 (1995)
Clp0006I 1639  Obj -57752 Primal inf 242343 (1994)
Clp0006I 1769  Obj -57752 Primal inf 282968 (1991)
Clp0006I 1910  Obj -57752 Primal inf 326743 (1992)
Clp0006I 2053  Obj -57752 Primal inf 232932 (1992)
Clp0006I 2213  Obj -57752 Primal inf 230727 (1993)
Clp0006I 2361  Obj -57752 Primal inf 292667 (1993)
Clp0006I 2519  Obj -57752 Primal inf 264999 (1993)
Clp0006I 2681  Obj -57752 Primal inf 237503 (1993)
Clp0006I 2824  Obj -57752 Primal inf 312452 (1990)
Clp0006I 2992  Obj -57752 Primal inf 252640 (1988)
Clp0006I 3165  Obj -57752 Primal inf 224036 (1986)
Clp0006I 3326  Obj -57752 Primal inf 241356 (1983)
Clp0006I 3492  Obj -57752 Primal inf 229938 (1985)
Clp0006I 3647  Obj -57752 Primal inf 197964 (1985)
Clp0006I 3817  Obj -57752 Primal inf 293927 (1986)
Clp0006I 3997  Obj -57752 Primal inf 275096 (1986)
Clp0006I 4142  Obj -57752 Primal inf 244121 (1987)
Clp0006I 4301  Obj -57752 Primal inf 282867 (1984)
Clp0006I 4469  Obj -57752 Primal inf 233191 (1982)
Clp0006I 4640  Obj -57752 Primal inf 236444 (1983)
Clp0006I 4794  Obj -57752 Primal inf 282723 (1983)
Clp0006I 4969  Obj -57752 Primal inf 289122 (1986)
Clp0006I 5123  Obj -57752 Primal inf 219187 (1985)
Clp0006I 5282  Obj -57752 Primal inf 331487 (1987)
Clp0006I 5434  Obj -57752 Primal inf 356515 (1985)
Clp0006I 5553  Obj -57752 Primal inf 393767 (1984)
Clp0006I 5684  Obj -57752 Primal inf 345510 (1985)
Clp0006I 5830  Obj -57752 Primal inf 350121 (1986)
Clp0006I 5989  Obj -57752 Primal inf 337465 (1989)
Clp0006I 6124  Obj -57752 Primal inf 309844 (1989)
Clp0006I 6281  Obj -57752 Primal inf 333348 (1988)
Clp0006I 6426  Obj -57752 Primal inf 280671 (1988)
Clp0006I 6573  Obj -57752 Primal inf 335123 (1985)
Clp0006I 6705  Obj -57752 Primal inf 285091 (1984)
Clp0006I 6848  Obj -57752 Primal inf 323061 (1987)
Clp0006I 6993  Obj -57752 Primal inf 300348 (1986)
Clp0006I 7142  Obj -57752 Primal inf 366824 (1987)
Clp0006I 7306  Obj -57752 Primal inf 298078 (1989)
Clp0006I 7434  Obj -57752 Primal inf 364473 (1989)
Clp0006I 7567  Obj -57752 Primal inf 354893 (1984)
Clp0006I 7703  Obj -57752 Primal inf 359083 (1987)
Clp0006I 7848  Obj -57752 Primal inf 389797 (1986)
Clp0006I 8000  Obj -57752 Primal inf 465936 (1986)
Clp0006I 8130  Obj -57752 Primal inf 322309 (1987)

TIME LIMIT REACHED!
real 1m24,225s user 1m23,550s sys 0m0,561s
